0
0
15
0
0
8
4
10
16
0
5
7
0
6
0
0
13
0
9
0
6
0
0
8
0
0
16
0
0
7
0
4
4
6
8
0
6
7
0
0
0
0
0
10
0
5
0
0
0
6
3
7
9
0
6
0
0
7
0
0
0
0
0
5
8
22
0
0
0
4
0
14
14
0
0
0
9
8
0
0
8
0
0
8
0
0
0
7
0
0
7
8
0
5
5
5
0
0
6
0
